p cnf 604 75
f7_line
601 529 533 537 553 557 577  -1 0
601 529 533 537 553 557 577  -26 0
601 529 533 537 553 557 577  -51 0
601 529 533 537 553 557 577  -76 0
601 529 533 537 553 557 577  -101 0
601 509 553 557 577  -7 0
601 509 553 557 577  -32 0
601 509 553 557 577  -57 0
601 509 553 557 577  -82 0
601 509 553 557 577  -107 0
601 505 517 533 577  -13 0
601 505 517 533 577  -38 0
601 505 517 533 577  -63 0
601 505 517 533 577  -88 0
601 505 517 533 577  -113 0
601 505 509 529 557  -19 0
601 505 509 529 557  -44 0
601 505 509 529 557  -69 0
601 505 509 529 557  -94 0
601 505 509 529 557  -119 0
601 505 509 513 529 533 553  -25 0
601 505 509 513 529 533 553  -50 0
601 505 509 513 529 533 553  -75 0
601 505 509 513 529 533 553  -100 0
601 505 509 513 529 533 553  -125 0
602 530 534 538 554 558 578  -126 0
602 530 534 538 554 558 578  -151 0
602 530 534 538 554 558 578  -176 0
602 530 534 538 554 558 578  -201 0
602 530 534 538 554 558 578  -226 0
602 510 554 558 578  -132 0
602 510 554 558 578  -157 0
602 510 554 558 578  -182 0
602 510 554 558 578  -207 0
602 510 554 558 578  -232 0
602 506 518 534 578  -138 0
602 506 518 534 578  -163 0
602 506 518 534 578  -188 0
602 506 518 534 578  -213 0
602 506 518 534 578  -238 0
602 506 510 530 558  -144 0
602 506 510 530 558  -169 0
602 506 510 530 558  -194 0
602 506 510 530 558  -219 0
602 506 510 530 558  -244 0
602 506 510 514 530 534 554  -150 0
602 506 510 514 530 534 554  -175 0
602 506 510 514 530 534 554  -200 0
602 506 510 514 530 534 554  -225 0
602 506 510 514 530 534 554  -250 0
603 531 535 539 555 559 579  -251 0
603 531 535 539 555 559 579  -276 0
603 531 535 539 555 559 579  -301 0
603 531 535 539 555 559 579  -326 0
603 531 535 539 555 559 579  -351 0
603 511 555 559 579  -257 0
603 511 555 559 579  -282 0
603 511 555 559 579  -307 0
603 511 555 559 579  -332 0
603 511 555 559 579  -357 0
603 507 519 535 579  -263 0
603 507 519 535 579  -288 0
603 507 519 535 579  -313 0
603 507 519 535 579  -338 0
603 507 519 535 579  -363 0
603 507 511 531 559  -269 0
603 507 511 531 559  -294 0
603 507 511 531 559  -319 0
603 507 511 531 559  -344 0
603 507 511 531 559  -369 0
603 507 511 515 531 535 555  -275 0
603 507 511 515 531 535 555  -300 0
603 507 511 515 531 535 555  -325 0
603 507 511 515 531 535 555  -350 0
603 507 511 515 531 535 555  -375 0
